(set-option :produce-models true); benchmark generated from python API
(set-info :status unknown)
(declare-fun l_0_0_9 () Real)
(declare-fun l_0_0_8 () Real)
(declare-fun l_0_0_3 () Real)
(declare-fun l_0_0_2 () Real)
(declare-fun _a_0_ () Real)
(declare-fun l_0_0_6 () Real)
(declare-fun l_0_0_5 () Real)
(declare-fun l_0_0_4 () Real)
(declare-fun l_0_0_12 () Real)
(declare-fun l_0_0_11 () Real)
(declare-fun l_0_0_10 () Real)
(declare-fun _a_1_ () Real)
(declare-fun l_0_0_7 () Real)
(declare-fun l_0_0_1 () Real)
(declare-fun _a_2_ () Real)
(declare-fun _a_3_ () Real)
(declare-fun _a_4_ () Real)
(declare-fun _a_5_ () Real)
(declare-fun l_0_1_9 () Real)
(declare-fun l_0_1_8 () Real)
(declare-fun l_0_1_15 () Real)
(declare-fun l_0_1_14 () Real)
(declare-fun l_0_1_3 () Real)
(declare-fun l_0_1_2 () Real)
(declare-fun l_0_1_7 () Real)
(declare-fun l_0_1_13 () Real)
(declare-fun l_0_1_1 () Real)
(declare-fun l_0_1_16 () Real)
(declare-fun l_0_1_11 () Real)
(declare-fun l_0_1_10 () Real)
(declare-fun l_0_1_5 () Real)
(declare-fun l_0_1_4 () Real)
(declare-fun l_0_1_17 () Real)
(declare-fun l_0_1_18 () Real)
(declare-fun l_0_1_12 () Real)
(declare-fun l_0_1_6 () Real)
(declare-fun l_0_2_9 () Real)
(declare-fun l_0_2_8 () Real)
(declare-fun l_0_2_15 () Real)
(declare-fun l_0_2_14 () Real)
(declare-fun l_0_2_3 () Real)
(declare-fun l_0_2_2 () Real)
(declare-fun l_0_2_18 () Real)
(declare-fun l_0_2_17 () Real)
(declare-fun l_0_2_16 () Real)
(declare-fun l_0_2_12 () Real)
(declare-fun l_0_2_11 () Real)
(declare-fun l_0_2_10 () Real)
(declare-fun l_0_2_5 () Real)
(declare-fun l_0_2_4 () Real)
(declare-fun l_0_2_6 () Real)
(declare-fun l_0_2_7 () Real)
(declare-fun l_0_2_13 () Real)
(declare-fun l_0_2_1 () Real)
(assert
 (let ((?x68 (* l_0_0_9 l_0_0_9)))
 (let ((?x66 (* l_0_0_8 l_0_0_8)))
 (let ((?x63 (* l_0_0_3 l_0_0_3)))
 (let ((?x64 (* 19.0 ?x63)))
 (let ((?x69 (- (- (+ (+ _a_0_ (* 19.0 (* l_0_0_2 l_0_0_2))) ?x64) ?x66) ?x68)))
 (= ?x69 0.0)))))))
(assert
 (let ((?x120 (* l_0_0_6 l_0_0_6)))
 (let ((?x121 (* 19.0 ?x120)))
 (let ((?x117 (* l_0_0_5 l_0_0_5)))
 (let ((?x118 (* 19.0 ?x117)))
 (let ((?x114 (* l_0_0_4 l_0_0_4)))
 (let ((?x115 (* 19.0 ?x114)))
 (let ((?x63 (* l_0_0_3 l_0_0_3)))
 (let ((?x59 (* l_0_0_2 l_0_0_2)))
 (let ((?x103 (* l_0_0_12 l_0_0_12)))
 (let ((?x104 (- (- (- _a_1_ (* l_0_0_10 l_0_0_10)) (* l_0_0_11 l_0_0_11)) ?x103)))
 (let ((?x112 (- (+ (- ?x104 (* (* 8.0 l_0_0_2) l_0_0_4)) ?x59) (* (* 8.0 l_0_0_3) l_0_0_5))))
 (= (+ (+ (+ (+ ?x112 ?x63) ?x115) ?x118) ?x121) 0.0)))))))))))))
(assert
 (let ((?x153 (- (+ _a_2_ (* (* 38.0 l_0_0_1) l_0_0_2)) (* (* 8.0 l_0_0_2) l_0_0_2))))
 (let ((?x159 (- (- ?x153 (* (* 8.0 l_0_0_3) l_0_0_3)) (* (* 2.0 l_0_0_7) l_0_0_8))))
 (= ?x159 0.0))))
(assert
 (let ((?x191 (* l_0_0_7 l_0_0_7)))
 (let ((?x63 (* l_0_0_3 l_0_0_3)))
 (let ((?x59 (* l_0_0_2 l_0_0_2)))
 (let ((?x186 (* l_0_0_1 l_0_0_1)))
 (let ((?x187 (* 19.0 ?x186)))
 (let ((?x190 (+ (+ (+ (- _a_3_ (* (* 16.0 l_0_0_1) l_0_0_2)) ?x187) ?x59) ?x63)))
 (= (- ?x190 ?x191) 0.0))))))))
(assert
 (let ((?x209 (+ (- _a_4_ (* (* 8.0 l_0_0_1) l_0_0_2)) (* (* 38.0 l_0_0_1) l_0_0_4))))
 (let ((?x215 (- (- ?x209 (* (* 2.0 l_0_0_10) l_0_0_7)) (* (* 16.0 l_0_0_2) l_0_0_4))))
 (= (- ?x215 (* (* 16.0 l_0_0_3) l_0_0_5)) 0.0))))
(assert
 (let ((?x249 (- (- _a_5_ (* (* 2.0 l_0_0_10) l_0_0_8)) (* (* 2.0 l_0_0_11) l_0_0_9))))
 (let ((?x256 (- (+ ?x249 (* (* 38.0 l_0_0_2) l_0_0_4)) (* (* 4.0 l_0_0_2) l_0_0_2))))
 (let ((?x262 (- (+ ?x256 (* (* 38.0 l_0_0_3) l_0_0_5)) (* (* 4.0 l_0_0_3) l_0_0_3))))
 (= ?x262 0.0)))))
(assert
 (let ((?x120 (* l_0_0_6 l_0_0_6)))
 (let ((?x117 (* l_0_0_5 l_0_0_5)))
 (= (+ (+ (+ (* l_0_0_1 l_0_0_1) (* l_0_0_4 l_0_0_4)) ?x117) ?x120) 0.0))))
(assert
 (let ((?x298 (* 2.0 l_0_0_1)))
 (let ((?x299 (* ?x298 l_0_0_2)))
 (let ((?x304 (- (- ?x299 (* (* 8.0 l_0_0_1) l_0_0_4)) (* (* 8.0 l_0_0_4) l_0_0_4))))
 (let ((?x310 (- (- ?x304 (* (* 8.0 l_0_0_5) l_0_0_5)) (* (* 8.0 l_0_0_6) l_0_0_6))))
 (= ?x310 0.0))))))
(assert
 (= (* (* 2.0 l_0_0_1) l_0_0_4) 0.0))
(assert
 (let ((?x342 (* (* 2.0 l_0_0_3) l_0_0_5)))
 (let ((?x340 (* (* 2.0 l_0_0_2) l_0_0_4)))
 (let ((?x349 (- (- (+ ?x340 ?x342) (* (* 4.0 l_0_0_4) l_0_0_4)) (* (* 4.0 l_0_0_5) l_0_0_5))))
 (= (- ?x349 (* (* 4.0 l_0_0_6) l_0_0_6)) 0.0)))))
(assert
 (let ((?x120 (* l_0_0_6 l_0_0_6)))
 (= (+ (+ (* l_0_0_4 l_0_0_4) (* l_0_0_5 l_0_0_5)) ?x120) 0.0)))
(assert
 (let ((?x342 (* (* 2.0 l_0_0_3) l_0_0_5)))
 (let ((?x340 (* (* 2.0 l_0_0_2) l_0_0_4)))
 (let ((?x385 (- (* (* (- 16.0) l_0_0_1) l_0_0_4) (* (* 4.0 l_0_0_1) l_0_0_1))))
 (= (+ (+ ?x385 ?x340) ?x342) 0.0)))))
(assert
 (let ((?x186 (* l_0_0_1 l_0_0_1)))
 (= ?x186 0.0)))
(assert
 (let ((?x298 (* 2.0 l_0_0_1)))
 (let ((?x299 (* ?x298 l_0_0_2)))
 (= (- ?x299 (* (* 8.0 l_0_0_1) l_0_0_1)) 0.0))))
(assert
 (= (* (* 2.0 l_0_0_1) l_0_0_4) 0.0))
(assert
 (>= l_0_0_1 0.0))
(assert
 (>= l_0_0_3 0.0))
(assert
 (>= l_0_0_6 0.0))
(assert
 (>= l_0_0_7 0.0))
(assert
 (>= l_0_0_9 0.0))
(assert
 (>= l_0_0_12 0.0))
(assert
 (let ((?x420 (* l_0_1_15 l_0_1_15)))
 (let ((?x418 (* l_0_1_14 l_0_1_14)))
 (let ((?x419 (- (* (- _a_0_) (+ (* l_0_1_2 l_0_1_2) (* l_0_1_3 l_0_1_3))) ?x418)))
 (let ((?x427 (- (- (- ?x419 ?x420) (* (* 16.0 l_0_1_8) l_0_1_8)) (* (* 16.0 l_0_1_9) l_0_1_9))))
 (= (+ ?x427 4.0) 0.0))))))
(assert
 (let ((?x448 (* l_0_1_9 l_0_1_9)))
 (let ((?x470 (* 8.0 ?x448)))
 (let ((?x442 (* l_0_1_8 l_0_1_8)))
 (let ((?x468 (* 8.0 ?x442)))
 (let ((?x460 (- (* (* (* (- 2.0) _a_0_) l_0_1_1) l_0_1_2) (* _a_2_ (+ (* l_0_1_2 l_0_1_2) (* l_0_1_3 l_0_1_3))))))
 (let ((?x467 (- (- ?x460 (* (* 2.0 l_0_1_13) l_0_1_14)) (* (* 32.0 l_0_1_7) l_0_1_8))))
 (= (- (+ (+ ?x467 ?x468) ?x470) 1.0) 0.0))))))))
(assert
 (let ((?x448 (* l_0_1_9 l_0_1_9)))
 (let ((?x442 (* l_0_1_8 l_0_1_8)))
 (let ((?x515 (* l_0_1_13 l_0_1_13)))
 (let ((?x512 (- (* (* (- _a_0_) l_0_1_1) l_0_1_1) (* (* (* 2.0 _a_2_) l_0_1_1) l_0_1_2))))
 (let ((?x514 (- ?x512 (* _a_3_ (+ (* l_0_1_2 l_0_1_2) (* l_0_1_3 l_0_1_3))))))
 (let ((?x521 (- (+ (- ?x514 ?x515) (* (* 16.0 l_0_1_7) l_0_1_8)) (* (* 16.0 l_0_1_7) l_0_1_7))))
 (= (- (- ?x521 ?x442) ?x448) 0.0))))))))
(assert
 (let ((?x570 (+ (* (* 2.0 l_0_1_2) l_0_1_4) (* (* 2.0 l_0_1_3) l_0_1_5))))
 (let ((?x574 (- (- (* (* (* (- 2.0) _a_0_) l_0_1_1) l_0_1_4) (* _a_2_ ?x570)) (* _a_4_ (+ (* l_0_1_2 l_0_1_2) (* l_0_1_3 l_0_1_3))))))
 (let ((?x581 (- (- ?x574 (* (* (* 2.0 _a_5_) l_0_1_1) l_0_1_2)) (* (* 32.0 l_0_1_10) l_0_1_7))))
 (let ((?x587 (+ (+ ?x581 (* (* 16.0 l_0_1_10) l_0_1_8)) (* (* 16.0 l_0_1_11) l_0_1_9))))
 (let ((?x592 (+ (- ?x587 (* (* 2.0 l_0_1_13) l_0_1_16)) (* (* 8.0 l_0_1_7) l_0_1_8))))
 (= ?x592 0.0)))))))
(assert
 (let ((?x448 (* l_0_1_9 l_0_1_9)))
 (let ((?x673 (* 4.0 ?x448)))
 (let ((?x442 (* l_0_1_8 l_0_1_8)))
 (let ((?x671 (* 4.0 ?x442)))
 (let ((?x570 (+ (* (* 2.0 l_0_1_2) l_0_1_4) (* (* 2.0 l_0_1_3) l_0_1_5))))
 (let ((?x413 (- _a_0_)))
 (let ((?x659 (- (* ?x413 ?x570) (* _a_5_ (+ (* l_0_1_2 l_0_1_2) (* l_0_1_3 l_0_1_3))))))
 (let ((?x664 (- (- ?x659 (* (* 32.0 l_0_1_10) l_0_1_8)) (* (* 32.0 l_0_1_11) l_0_1_9))))
 (let ((?x670 (- (- ?x664 (* (* 2.0 l_0_1_14) l_0_1_16)) (* (* 2.0 l_0_1_15) l_0_1_17))))
 (= (+ (+ ?x670 ?x671) ?x673) 0.0)))))))))))
(assert
 (let ((?x448 (* l_0_1_9 l_0_1_9)))
 (let ((?x442 (* l_0_1_8 l_0_1_8)))
 (let ((?x745 (* l_0_1_18 l_0_1_18)))
 (let ((?x743 (* l_0_1_17 l_0_1_17)))
 (let ((?x741 (* l_0_1_16 l_0_1_16)))
 (let ((?x570 (+ (* (* 2.0 l_0_1_2) l_0_1_4) (* (* 2.0 l_0_1_3) l_0_1_5))))
 (let ((?x721 (* l_0_1_6 l_0_1_6)))
 (let ((?x722 (+ (+ (* l_0_1_4 l_0_1_4) (* l_0_1_5 l_0_1_5)) ?x721)))
 (let ((?x413 (- _a_0_)))
 (let ((?x725 (- (* ?x413 ?x722) (* _a_1_ (+ (* l_0_1_2 l_0_1_2) (* l_0_1_3 l_0_1_3))))))
 (let ((?x732 (- (+ (- ?x725 (* _a_5_ ?x570)) (* (* 8.0 l_0_1_10) l_0_1_8)) (* (* 16.0 l_0_1_10) l_0_1_10))))
 (let ((?x737 (- (+ ?x732 (* (* 8.0 l_0_1_11) l_0_1_9)) (* (* 16.0 l_0_1_11) l_0_1_11))))
 (let ((?x746 (- (- (- (- ?x737 (* (* 16.0 l_0_1_12) l_0_1_12)) ?x741) ?x743) ?x745)))
 (= (- (- ?x746 ?x442) ?x448) 0.0)))))))))))))))
(assert
 (let ((?x550 (* l_0_1_7 l_0_1_7)))
 (let ((?x802 (* l_0_1_12 l_0_1_12)))
 (let ((?x796 (* l_0_1_11 l_0_1_11)))
 (let ((?x788 (* l_0_1_10 l_0_1_10)))
 (let ((?x721 (* l_0_1_6 l_0_1_6)))
 (let ((?x722 (+ (+ (* l_0_1_4 l_0_1_4) (* l_0_1_5 l_0_1_5)) ?x721)))
 (let ((?x833 (- (- (* (* (- _a_1_) l_0_1_1) l_0_1_1) (* _a_3_ ?x722)) (* (* (* 2.0 _a_4_) l_0_1_1) l_0_1_4))))
 (= (- (- (- (- ?x833 ?x788) ?x796) ?x802) ?x550) 0.0)))))))))
(assert
 (let ((?x896 (* (* 2.0 l_0_1_7) l_0_1_8)))
 (let ((?x802 (* l_0_1_12 l_0_1_12)))
 (let ((?x893 (* 8.0 ?x802)))
 (let ((?x796 (* l_0_1_11 l_0_1_11)))
 (let ((?x891 (* 8.0 ?x796)))
 (let ((?x788 (* l_0_1_10 l_0_1_10)))
 (let ((?x889 (* 8.0 ?x788)))
 (let ((?x570 (+ (* (* 2.0 l_0_1_2) l_0_1_4) (* (* 2.0 l_0_1_3) l_0_1_5))))
 (let ((?x721 (* l_0_1_6 l_0_1_6)))
 (let ((?x722 (+ (+ (* l_0_1_4 l_0_1_4) (* l_0_1_5 l_0_1_5)) ?x721)))
 (let ((?x884 (- (- (* (* (* (- 2.0) _a_1_) l_0_1_1) l_0_1_2) (* _a_2_ ?x722)) (* _a_4_ ?x570))))
 (let ((?x888 (+ (- ?x884 (* (* (* 2.0 _a_5_) l_0_1_1) l_0_1_4)) (* (* 8.0 l_0_1_10) l_0_1_7))))
 (= (- (+ (+ (+ ?x888 ?x889) ?x891) ?x893) ?x896) 0.0))))))))))))))
(assert
 (let ((?x958 (* 2.0 l_0_1_10)))
 (let ((?x959 (* ?x958 l_0_1_7)))
 (let ((?x721 (* l_0_1_6 l_0_1_6)))
 (let ((?x722 (+ (+ (* l_0_1_4 l_0_1_4) (* l_0_1_5 l_0_1_5)) ?x721)))
 (let ((?x960 (- (- (* (* (* (- 2.0) _a_1_) l_0_1_1) l_0_1_4) (* _a_4_ ?x722)) ?x959)))
 (= ?x960 0.0)))))))
(assert
 (let ((?x997 (* (* 2.0 l_0_1_11) l_0_1_9)))
 (let ((?x788 (* l_0_1_10 l_0_1_10)))
 (let ((?x994 (* 4.0 ?x788)))
 (let ((?x958 (* 2.0 l_0_1_10)))
 (let ((?x992 (* ?x958 l_0_1_8)))
 (let ((?x721 (* l_0_1_6 l_0_1_6)))
 (let ((?x722 (+ (+ (* l_0_1_4 l_0_1_4) (* l_0_1_5 l_0_1_5)) ?x721)))
 (let ((?x570 (+ (* (* 2.0 l_0_1_2) l_0_1_4) (* (* 2.0 l_0_1_3) l_0_1_5))))
 (let ((?x825 (- _a_1_)))
 (let ((?x1000 (+ (- (+ (- (- (* ?x825 ?x570) (* _a_5_ ?x722)) ?x992) ?x994) ?x997) (* 4.0 (* l_0_1_11 l_0_1_11)))))
 (= (+ ?x1000 (* 4.0 (* l_0_1_12 l_0_1_12))) 0.0))))))))))))
(assert
 (let ((?x802 (* l_0_1_12 l_0_1_12)))
 (let ((?x796 (* l_0_1_11 l_0_1_11)))
 (let ((?x788 (* l_0_1_10 l_0_1_10)))
 (let ((?x721 (* l_0_1_6 l_0_1_6)))
 (let ((?x722 (+ (+ (* l_0_1_4 l_0_1_4) (* l_0_1_5 l_0_1_5)) ?x721)))
 (let ((?x825 (- _a_1_)))
 (= (- (- (- (* ?x825 ?x722) ?x788) ?x796) ?x802) 0.0))))))))
(assert
 (let ((?x896 (* (* 2.0 l_0_1_7) l_0_1_8)))
 (let ((?x1066 (- (* (* (- _a_2_) l_0_1_1) l_0_1_1) (* (* (* 2.0 _a_3_) l_0_1_1) l_0_1_2))))
 (= (+ (- ?x1066 ?x896) (* 8.0 (* l_0_1_7 l_0_1_7))) 0.0))))
(assert
 (let ((?x550 (* l_0_1_7 l_0_1_7)))
 (let ((?x1098 (* 4.0 ?x550)))
 (let ((?x997 (* (* 2.0 l_0_1_11) l_0_1_9)))
 (let ((?x958 (* 2.0 l_0_1_10)))
 (let ((?x992 (* ?x958 l_0_1_8)))
 (let ((?x570 (+ (* (* 2.0 l_0_1_2) l_0_1_4) (* (* 2.0 l_0_1_3) l_0_1_5))))
 (let ((?x1091 (- (- (* (* (* (- 2.0) _a_2_) l_0_1_1) l_0_1_4) (* _a_3_ ?x570)) (* (* (* 2.0 _a_4_) l_0_1_1) l_0_1_2))))
 (let ((?x1095 (+ (- ?x1091 (* (* _a_5_ l_0_1_1) l_0_1_1)) (* (* 16.0 l_0_1_10) l_0_1_7))))
 (= (+ (- (- ?x1095 ?x992) ?x997) ?x1098) 0.0))))))))))
(assert
 (= (- (* (* (- _a_3_) l_0_1_1) l_0_1_1) (* l_0_1_7 l_0_1_7)) 0.0))
(assert
 (let ((?x958 (* 2.0 l_0_1_10)))
 (let ((?x959 (* ?x958 l_0_1_7)))
 (let ((?x1156 (- (* (* (* (- 2.0) _a_3_) l_0_1_1) l_0_1_4) (* (* _a_4_ l_0_1_1) l_0_1_1))))
 (= (- ?x1156 ?x959) 0.0)))))
(assert
 (>= l_0_1_1 0.0))
(assert
 (>= l_0_1_3 0.0))
(assert
 (>= l_0_1_6 0.0))
(assert
 (>= l_0_1_7 0.0))
(assert
 (>= l_0_1_9 0.0))
(assert
 (>= l_0_1_12 0.0))
(assert
 (>= l_0_1_13 0.0))
(assert
 (>= l_0_1_15 0.0))
(assert
 (>= l_0_1_18 0.0))
(assert
 (let ((?x1191 (* l_0_2_9 l_0_2_9)))
 (let ((?x1192 (* 16.0 ?x1191)))
 (let ((?x1188 (* l_0_2_8 l_0_2_8)))
 (let ((?x1189 (* 16.0 ?x1188)))
 (let ((?x1186 (* l_0_2_15 l_0_2_15)))
 (let ((?x1184 (* l_0_2_14 l_0_2_14)))
 (let ((?x1183 (+ (* (- _a_0_) (+ (* l_0_2_2 l_0_2_2) (* l_0_2_3 l_0_2_3))) _a_0_)))
 (= (+ (+ (- (- ?x1183 ?x1184) ?x1186) ?x1189) ?x1192) 0.0)))))))))
(assert
 (let ((?x1191 (* l_0_2_9 l_0_2_9)))
 (let ((?x1188 (* l_0_2_8 l_0_2_8)))
 (let ((?x1250 (* l_0_2_18 l_0_2_18)))
 (let ((?x1248 (* l_0_2_17 l_0_2_17)))
 (let ((?x1246 (* l_0_2_16 l_0_2_16)))
 (let ((?x1243 (* l_0_2_12 l_0_2_12)))
 (let ((?x1244 (* 16.0 ?x1243)))
 (let ((?x1240 (* l_0_2_11 l_0_2_11)))
 (let ((?x1241 (* 16.0 ?x1240)))
 (let ((?x1234 (* l_0_2_10 l_0_2_10)))
 (let ((?x1235 (* 16.0 ?x1234)))
 (let ((?x1228 (+ (* (* 2.0 l_0_2_2) l_0_2_4) (* (* 2.0 l_0_2_3) l_0_2_5))))
 (let ((?x1222 (* (/ 1.0 10.0) _a_4_)))
 (let ((?x1219 (* (/ 1.0 100.0) _a_3_)))
 (let ((?x1212 (* l_0_2_6 l_0_2_6)))
 (let ((?x1213 (+ (+ (* l_0_2_4 l_0_2_4) (* l_0_2_5 l_0_2_5)) ?x1212)))
 (let ((?x413 (- _a_0_)))
 (let ((?x1216 (- (* ?x413 ?x1213) (* _a_1_ (+ (* l_0_2_2 l_0_2_2) (* l_0_2_3 l_0_2_3))))))
 (let ((?x1233 (- (- (- (+ (+ ?x1216 _a_1_) ?x1219) ?x1222) (* _a_5_ ?x1228)) (* (* 8.0 l_0_2_10) l_0_2_8))))
 (let ((?x1245 (+ (+ (- (+ ?x1233 ?x1235) (* (* 8.0 l_0_2_11) l_0_2_9)) ?x1241) ?x1244)))
 (= (+ (+ (- (- (- ?x1245 ?x1246) ?x1248) ?x1250) ?x1188) ?x1191) 0.0))))))))))))))))))))))
(assert
 (let ((?x1339 (* (/ 109.0 100.0) _a_4_)))
 (let ((?x1334 (* (/ 11.0 50.0) _a_3_)))
 (let ((?x1228 (+ (* (* 2.0 l_0_2_2) l_0_2_4) (* (* 2.0 l_0_2_3) l_0_2_5))))
 (let ((?x1332 (- (+ (* (* (* (- 2.0) _a_0_) l_0_2_1) l_0_2_4) (* (/ 1.0 5.0) _a_1_)) (* _a_2_ ?x1228))))
 (let ((?x1337 (- (- ?x1332 ?x1334) (* _a_4_ (+ (* l_0_2_2 l_0_2_2) (* l_0_2_3 l_0_2_3))))))
 (let ((?x1346 (+ (- (+ ?x1337 ?x1339) (* (* (* 2.0 _a_5_) l_0_2_1) l_0_2_2)) (* (* 32.0 l_0_2_10) l_0_2_7))))
 (let ((?x1352 (- (- ?x1346 (* (* 16.0 l_0_2_10) l_0_2_8)) (* (* 16.0 l_0_2_11) l_0_2_9))))
 (let ((?x1358 (- (- ?x1352 (* (* 2.0 l_0_2_13) l_0_2_16)) (* (* 8.0 l_0_2_7) l_0_2_8))))
 (= ?x1358 0.0))))))))))
(assert
 (let ((?x1191 (* l_0_2_9 l_0_2_9)))
 (let ((?x1188 (* l_0_2_8 l_0_2_8)))
 (let ((?x1451 (* l_0_2_7 l_0_2_7)))
 (let ((?x1452 (* 16.0 ?x1451)))
 (let ((?x1446 (* l_0_2_13 l_0_2_13)))
 (let ((?x1444 (* (/ 11.0 100.0) _a_4_)))
 (let ((?x1441 (* (/ 121.0 100.0) _a_3_)))
 (let ((?x1437 (- (+ (* (* (- _a_0_) l_0_2_1) l_0_2_1) (* (/ 1.0 100.0) _a_1_)) (* (* (* 2.0 _a_2_) l_0_2_1) l_0_2_2))))
 (let ((?x1439 (- ?x1437 (* _a_3_ (+ (* l_0_2_2 l_0_2_2) (* l_0_2_3 l_0_2_3))))))
 (let ((?x1450 (- (- (+ (+ ?x1439 ?x1441) ?x1444) ?x1446) (* (* 16.0 l_0_2_7) l_0_2_8))))
 (= (+ (+ (+ ?x1450 ?x1452) ?x1188) ?x1191) 0.0))))))))))))
(assert
 (let ((?x1495 (* (/ 1.0 10.0) _a_5_)))
 (let ((?x1493 (* (/ 11.0 10.0) _a_2_)))
 (let ((?x1491 (- (* (* (* (- 2.0) _a_0_) l_0_2_1) l_0_2_2) (* _a_2_ (+ (* l_0_2_2 l_0_2_2) (* l_0_2_3 l_0_2_3))))))
 (let ((?x1501 (+ (- (+ (+ ?x1491 ?x1493) ?x1495) (* (* 2.0 l_0_2_13) l_0_2_14)) (* (* 32.0 l_0_2_7) l_0_2_8))))
 (let ((?x1507 (- (- ?x1501 (* (* 8.0 l_0_2_8) l_0_2_8)) (* (* 8.0 l_0_2_9) l_0_2_9))))
 (= ?x1507 0.0)))))))
(assert
 (let ((?x1565 (* (* 2.0 l_0_2_7) l_0_2_8)))
 (let ((?x1228 (+ (* (* 2.0 l_0_2_2) l_0_2_4) (* (* 2.0 l_0_2_3) l_0_2_5))))
 (let ((?x1549 (* (/ 1.0 10.0) _a_2_)))
 (let ((?x1212 (* l_0_2_6 l_0_2_6)))
 (let ((?x1213 (+ (+ (* l_0_2_4 l_0_2_4) (* l_0_2_5 l_0_2_5)) ?x1212)))
 (let ((?x1550 (- (- (* (* (* (- 2.0) _a_1_) l_0_2_1) l_0_2_2) (* _a_2_ ?x1213)) ?x1549)))
 (let ((?x1554 (- (- ?x1550 (* _a_4_ ?x1228)) (* (* (* 2.0 _a_5_) l_0_2_1) l_0_2_4))))
 (let ((?x1558 (- (- ?x1554 (* (* 8.0 l_0_2_10) l_0_2_7)) (* (* 8.0 l_0_2_10) l_0_2_10))))
 (let ((?x1563 (- (- ?x1558 (* (* 8.0 l_0_2_11) l_0_2_11)) (* (* 8.0 l_0_2_12) l_0_2_12))))
 (= (+ ?x1563 ?x1565) 0.0)))))))))))
(assert
 (let ((?x1549 (* (/ 1.0 10.0) _a_2_)))
 (let ((?x1228 (+ (* (* 2.0 l_0_2_2) l_0_2_4) (* (* 2.0 l_0_2_3) l_0_2_5))))
 (let ((?x413 (- _a_0_)))
 (let ((?x1642 (- (- (* ?x413 ?x1228) ?x1549) (* _a_5_ (+ (* l_0_2_2 l_0_2_2) (* l_0_2_3 l_0_2_3))))))
 (let ((?x1648 (+ (+ (+ ?x1642 _a_5_) (* (* 32.0 l_0_2_10) l_0_2_8)) (* (* 32.0 l_0_2_11) l_0_2_9))))
 (let ((?x1654 (- (- ?x1648 (* (* 2.0 l_0_2_14) l_0_2_16)) (* (* 2.0 l_0_2_15) l_0_2_17))))
 (let ((?x1660 (- (- ?x1654 (* (* 4.0 l_0_2_8) l_0_2_8)) (* (* 4.0 l_0_2_9) l_0_2_9))))
 (= ?x1660 0.0)))))))))
(assert
 (let ((?x1451 (* l_0_2_7 l_0_2_7)))
 (let ((?x1243 (* l_0_2_12 l_0_2_12)))
 (let ((?x1240 (* l_0_2_11 l_0_2_11)))
 (let ((?x1234 (* l_0_2_10 l_0_2_10)))
 (let ((?x1719 (* (/ 1.0 100.0) _a_4_)))
 (let ((?x1334 (* (/ 11.0 50.0) _a_3_)))
 (let ((?x1212 (* l_0_2_6 l_0_2_6)))
 (let ((?x1213 (+ (+ (* l_0_2_4 l_0_2_4) (* l_0_2_5 l_0_2_5)) ?x1212)))
 (let ((?x1715 (- (- (* (* (- _a_1_) l_0_2_1) l_0_2_1) (* _a_3_ ?x1213)) ?x1334)))
 (let ((?x1721 (+ (- (- ?x1715 (* (* (* 2.0 _a_4_) l_0_2_1) l_0_2_4)) ?x1719) ?x1234)))
 (= (+ (+ (+ ?x1721 ?x1240) ?x1243) ?x1451) 0.0))))))))))))
(assert
 (let ((?x1219 (* (/ 1.0 100.0) _a_3_)))
 (= ?x1219 0.0)))
(assert
 (let ((?x1771 (* 2.0 l_0_2_10)))
 (let ((?x1772 (* ?x1771 l_0_2_7)))
 (let ((?x1222 (* (/ 1.0 10.0) _a_4_)))
 (let ((?x1212 (* l_0_2_6 l_0_2_6)))
 (let ((?x1213 (+ (+ (* l_0_2_4 l_0_2_4) (* l_0_2_5 l_0_2_5)) ?x1212)))
 (let ((?x1769 (- (+ (* (* (* (- 2.0) _a_1_) l_0_2_1) l_0_2_4) (* (/ 1.0 50.0) _a_3_)) (* _a_4_ ?x1213))))
 (= (+ (- ?x1769 ?x1222) ?x1772) 0.0))))))))
(assert
 (let ((?x1809 (* (* 2.0 l_0_2_11) l_0_2_9)))
 (let ((?x1771 (* 2.0 l_0_2_10)))
 (let ((?x1803 (* ?x1771 l_0_2_8)))
 (let ((?x1212 (* l_0_2_6 l_0_2_6)))
 (let ((?x1213 (+ (+ (* l_0_2_4 l_0_2_4) (* l_0_2_5 l_0_2_5)) ?x1212)))
 (let ((?x1228 (+ (* (* 2.0 l_0_2_2) l_0_2_4) (* (* 2.0 l_0_2_3) l_0_2_5))))
 (let ((?x825 (- _a_1_)))
 (let ((?x1807 (- (+ (- (* ?x825 ?x1228) (* _a_5_ ?x1213)) ?x1803) (* (* 4.0 l_0_2_10) l_0_2_10))))
 (let ((?x1816 (- (- (+ ?x1807 ?x1809) (* (* 4.0 l_0_2_11) l_0_2_11)) (* (* 4.0 l_0_2_12) l_0_2_12))))
 (= ?x1816 0.0)))))))))))
(assert
 (let ((?x1243 (* l_0_2_12 l_0_2_12)))
 (let ((?x1240 (* l_0_2_11 l_0_2_11)))
 (let ((?x1234 (* l_0_2_10 l_0_2_10)))
 (let ((?x1212 (* l_0_2_6 l_0_2_6)))
 (let ((?x1213 (+ (+ (* l_0_2_4 l_0_2_4) (* l_0_2_5 l_0_2_5)) ?x1212)))
 (let ((?x825 (- _a_1_)))
 (= (+ (+ (+ (* ?x825 ?x1213) ?x1234) ?x1240) ?x1243) 0.0))))))))
(assert
 (let ((?x1565 (* (* 2.0 l_0_2_7) l_0_2_8)))
 (let ((?x1879 (- (* (* (- _a_2_) l_0_2_1) l_0_2_1) (* (* (* 2.0 _a_3_) l_0_2_1) l_0_2_2))))
 (= (- (+ ?x1879 ?x1565) (* (* 8.0 l_0_2_7) l_0_2_7)) 0.0))))
(assert
 (let ((?x1809 (* (* 2.0 l_0_2_11) l_0_2_9)))
 (let ((?x1771 (* 2.0 l_0_2_10)))
 (let ((?x1803 (* ?x1771 l_0_2_8)))
 (let ((?x1228 (+ (* (* 2.0 l_0_2_2) l_0_2_4) (* (* 2.0 l_0_2_3) l_0_2_5))))
 (let ((?x1905 (- (- (* (* (* (- 2.0) _a_2_) l_0_2_1) l_0_2_4) (* _a_3_ ?x1228)) (* (* (* 2.0 _a_4_) l_0_2_1) l_0_2_2))))
 (let ((?x1909 (- (- ?x1905 (* (* _a_5_ l_0_2_1) l_0_2_1)) (* (* 16.0 l_0_2_10) l_0_2_7))))
 (= (- (+ (+ ?x1909 ?x1803) ?x1809) (* (* 4.0 l_0_2_7) l_0_2_7)) 0.0))))))))
(assert
 (= (+ (* (* (- _a_3_) l_0_2_1) l_0_2_1) (* l_0_2_7 l_0_2_7)) 0.0))
(assert
 (let ((?x1771 (* 2.0 l_0_2_10)))
 (let ((?x1772 (* ?x1771 l_0_2_7)))
 (let ((?x1970 (- (* (* (* (- 2.0) _a_3_) l_0_2_1) l_0_2_4) (* (* _a_4_ l_0_2_1) l_0_2_1))))
 (= (+ ?x1970 ?x1772) 0.0)))))
(assert
 (>= l_0_2_1 0.0))
(assert
 (>= l_0_2_3 0.0))
(assert
 (>= l_0_2_6 0.0))
(assert
 (>= l_0_2_7 0.0))
(assert
 (>= l_0_2_9 0.0))
(assert
 (>= l_0_2_12 0.0))
(assert
 (>= l_0_2_13 0.0))
(assert
 (>= l_0_2_15 0.0))
(assert
 (>= l_0_2_18 0.0))
(check-sat)
(get-model)